instance_name = "short_n0174_r015_139";
instance_group = "short";
rsi_start = 0;
rsi_end = 139;
rsi_min_distance = 15;
rsi_max_distance = 139;
num_nodes = 174;
num_neighbors = 1068;
neighbors = [
[0, 1],
[0, 2],
[0, 3],
[0, 6],
[0, 9],
[0, 10],
[0, 12],
[0, 13],
[0, 15],
[0, 18],
[0, 21],
[0, 24],
[0, 30],
[1, 2],
[1, 3],
[1, 4],
[1, 7],
[1, 10],
[1, 11],
[1, 12],
[1, 13],
[1, 15],
[1, 16],
[1, 18],
[1, 19],
[1, 21],
[1, 22],
[1, 24],
[1, 25],
[2, 3],
[2, 4],
[2, 5],
[2, 6],
[2, 8],
[2, 10],
[2, 11],
[2, 12],
[2, 13],
[2, 14],
[2, 15],
[2, 17],
[2, 19],
[2, 29],
[3, 4],
[3, 5],
[3, 6],
[3, 9],
[3, 10],
[3, 12],
[3, 15],
[3, 18],
[3, 19],
[3, 21],
[3, 24],
[4, 5],
[4, 7],
[4, 10],
[4, 12],
[4, 13],
[4, 15],
[4, 19],
[4, 20],
[4, 22],
[4, 25],
[4, 31],
[4, 32],
[4, 33],
[4, 34],
[4, 131],
[4, 141],
[5, 8],
[5, 10],
[5, 11],
[5, 12],
[5, 14],
[5, 17],
[5, 20],
[5, 23],
[5, 26],
[5, 32],
[6, 7],
[6, 8],
[6, 9],
[6, 12],
[6, 18],
[6, 24],
[7, 8],
[7, 10],
[7, 13],
[7, 19],
[7, 22],
[7, 25],
[8, 9],
[8, 11],
[8, 20],
[8, 23],
[8, 26],
[9, 10],
[9, 11],
[9, 12],
[9, 15],
[9, 18],
[9, 21],
[9, 22],
[9, 24],
[10, 11],
[10, 12],
[10, 13],
[10, 16],
[10, 18],
[10, 22],
[10, 25],
[11, 12],
[11, 14],
[11, 17],
[11, 22],
[12, 13],
[12, 14],
[12, 15],
[12, 18],
[12, 22],
[12, 24],
[13, 14],
[13, 15],
[13, 16],
[13, 17],
[13, 22],
[13, 24],
[13, 25],
[13, 37],
[14, 17],
[15, 16],
[15, 17],
[15, 18],
[15, 20],
[15, 22],
[15, 27],
[15, 33],
[15, 35],
[15, 36],
[15, 37],
[15, 38],
[15, 167],
[16, 17],
[16, 22],
[16, 33],
[16, 34],
[16, 35],
[16, 36],
[16, 37],
[16, 167],
[17, 18],
[17, 19],
[17, 24],
[17, 25],
[17, 26],
[17, 27],
[17, 28],
[17, 29],
[17, 38],
[17, 141],
[18, 19],
[18, 20],
[18, 21],
[18, 24],
[18, 25],
[18, 27],
[19, 20],
[19, 28],
[19, 31],
[20, 22],
[20, 23],
[20, 31],
[20, 32],
[20, 33],
[20, 34],
[20, 131],
[21, 22],
[21, 23],
[21, 26],
[21, 29],
[21, 30],
[21, 141],
[22, 23],
[22, 24],
[22, 33],
[22, 34],
[22, 35],
[22, 37],
[22, 167],
[24, 25],
[24, 26],
[24, 36],
[24, 37],
[25, 26],
[27, 28],
[27, 29],
[27, 30],
[27, 36],
[27, 37],
[27, 38],
[27, 141],
[27, 142],
[27, 169],
[28, 29],
[28, 30],
[28, 31],
[28, 37],
[28, 38],
[28, 141],
[28, 142],
[28, 169],
[29, 30],
[29, 31],
[29, 32],
[29, 141],
[30, 31],
[30, 32],
[30, 131],
[30, 132],
[30, 141],
[31, 32],
[31, 33],
[31, 34],
[31, 131],
[31, 141],
[32, 33],
[32, 34],
[32, 131],
[32, 141],
[32, 167],
[33, 34],
[33, 35],
[33, 36],
[33, 130],
[33, 131],
[33, 141],
[33, 167],
[34, 35],
[34, 36],
[34, 37],
[34, 131],
[34, 141],
[34, 167],
[34, 168],
[35, 36],
[35, 37],
[35, 38],
[35, 131],
[35, 167],
[35, 168],
[35, 169],
[36, 37],
[36, 38],
[36, 141],
[36, 142],
[36, 152],
[36, 167],
[36, 168],
[36, 169],
[37, 38],
[37, 142],
[37, 167],
[37, 168],
[37, 169],
[38, 141],
[38, 142],
[38, 152],
[38, 168],
[38, 169],
[39, 40],
[39, 41],
[39, 45],
[39, 77],
[39, 80],
[39, 83],
[39, 92],
[39, 147],
[40, 41],
[40, 45],
[40, 46],
[40, 47],
[40, 75],
[40, 78],
[40, 80],
[40, 92],
[40, 93],
[40, 147],
[41, 77],
[41, 78],
[41, 79],
[41, 83],
[41, 96],
[42, 43],
[42, 44],
[42, 49],
[42, 53],
[42, 58],
[42, 59],
[42, 61],
[42, 64],
[42, 65],
[42, 68],
[42, 97],
[42, 99],
[42, 100],
[43, 44],
[43, 49],
[43, 101],
[45, 46],
[45, 47],
[45, 77],
[45, 78],
[45, 80],
[45, 81],
[45, 82],
[45, 83],
[45, 86],
[45, 92],
[45, 93],
[46, 47],
[46, 75],
[46, 78],
[46, 81],
[46, 90],
[46, 93],
[47, 78],
[47, 79],
[47, 80],
[47, 81],
[47, 82],
[47, 83],
[47, 84],
[47, 85],
[47, 88],
[47, 93],
[47, 104],
[47, 105],
[48, 49],
[48, 50],
[48, 51],
[48, 52],
[48, 53],
[48, 54],
[48, 56],
[48, 57],
[48, 66],
[48, 67],
[48, 68],
[48, 70],
[48, 90],
[48, 100],
[49, 50],
[49, 53],
[49, 56],
[49, 57],
[49, 58],
[49, 59],
[49, 61],
[49, 64],
[49, 65],
[49, 68],
[49, 97],
[49, 99],
[49, 100],
[50, 53],
[50, 57],
[50, 66],
[50, 68],
[51, 52],
[51, 53],
[51, 54],
[51, 55],
[51, 56],
[51, 57],
[51, 66],
[51, 67],
[51, 68],
[51, 70],
[51, 75],
[51, 90],
[52, 53],
[52, 55],
[52, 67],
[52, 68],
[52, 70],
[52, 90],
[52, 97],
[52, 98],
[52, 100],
[52, 101],
[53, 54],
[53, 55],
[53, 56],
[53, 57],
[53, 58],
[53, 59],
[53, 61],
[53, 63],
[53, 64],
[53, 65],
[53, 67],
[53, 68],
[53, 97],
[53, 99],
[53, 100],
[53, 101],
[54, 55],
[54, 56],
[54, 57],
[54, 66],
[54, 68],
[55, 56],
[55, 66],
[55, 67],
[55, 68],
[55, 75],
[56, 57],
[57, 58],
[57, 59],
[58, 59],
[58, 68],
[58, 97],
[58, 100],
[59, 65],
[59, 68],
[59, 97],
[59, 99],
[59, 100],
[60, 61],
[60, 62],
[60, 63],
[60, 64],
[60, 65],
[61, 63],
[61, 64],
[61, 65],
[61, 67],
[61, 97],
[61, 99],
[61, 101],
[62, 64],
[62, 65],
[63, 64],
[63, 65],
[63, 97],
[64, 65],
[64, 67],
[64, 68],
[64, 97],
[64, 99],
[65, 68],
[66, 67],
[66, 68],
[66, 70],
[67, 68],
[67, 70],
[67, 75],
[67, 90],
[67, 98],
[68, 97],
[68, 100],
[69, 70],
[69, 71],
[69, 72],
[69, 74],
[69, 76],
[69, 79],
[69, 81],
[69, 86],
[69, 87],
[69, 88],
[69, 90],
[69, 91],
[69, 96],
[69, 105],
[70, 71],
[70, 75],
[70, 88],
[70, 90],
[72, 73],
[72, 74],
[72, 90],
[73, 74],
[73, 90],
[74, 90],
[75, 76],
[75, 81],
[75, 90],
[75, 105],
[76, 87],
[76, 88],
[76, 90],
[76, 96],
[76, 105],
[77, 78],
[77, 79],
[77, 80],
[77, 83],
[77, 86],
[77, 92],
[77, 94],
[77, 95],
[77, 96],
[78, 79],
[78, 80],
[78, 81],
[78, 82],
[78, 83],
[78, 84],
[78, 92],
[78, 93],
[78, 95],
[78, 103],
[78, 105],
[79, 82],
[79, 83],
[79, 84],
[79, 85],
[79, 86],
[79, 88],
[79, 94],
[79, 95],
[79, 96],
[79, 105],
[80, 81],
[80, 82],
[80, 92],
[80, 93],
[81, 82],
[81, 90],
[82, 83],
[82, 84],
[82, 85],
[82, 86],
[82, 88],
[82, 103],
[82, 104],
[82, 105],
[83, 84],
[83, 85],
[83, 92],
[83, 105],
[84, 85],
[84, 103],
[84, 105],
[85, 87],
[85, 105],
[86, 87],
[86, 88],
[86, 94],
[86, 95],
[86, 96],
[87, 88],
[87, 90],
[87, 96],
[88, 89],
[88, 90],
[88, 96],
[88, 105],
[89, 90],
[89, 91],
[90, 91],
[90, 96],
[92, 93],
[94, 95],
[94, 96],
[95, 96],
[97, 98],
[97, 99],
[97, 100],
[97, 101],
[97, 102],
[98, 99],
[98, 100],
[98, 101],
[98, 102],
[99, 100],
[99, 101],
[99, 102],
[100, 101],
[100, 102],
[101, 102],
[103, 104],
[103, 105],
[104, 105],
[106, 107],
[106, 108],
[106, 127],
[106, 141],
[106, 149],
[106, 153],
[106, 154],
[106, 155],
[106, 156],
[106, 157],
[106, 158],
[106, 162],
[106, 163],
[106, 164],
[106, 170],
[107, 108],
[107, 116],
[107, 119],
[107, 121],
[107, 124],
[107, 126],
[107, 133],
[107, 134],
[107, 137],
[107, 140],
[107, 141],
[107, 145],
[107, 148],
[107, 149],
[107, 150],
[107, 151],
[107, 152],
[107, 153],
[107, 154],
[107, 157],
[107, 161],
[107, 162],
[107, 163],
[107, 165],
[107, 168],
[107, 170],
[108, 132],
[108, 155],
[108, 170],
[108, 172],
[109, 110],
[109, 111],
[109, 113],
[109, 114],
[109, 115],
[109, 116],
[109, 117],
[109, 128],
[109, 129],
[109, 134],
[109, 135],
[109, 141],
[109, 142],
[109, 143],
[109, 146],
[109, 147],
[109, 148],
[109, 150],
[109, 152],
[109, 168],
[109, 169],
[109, 170],
[109, 171],
[109, 172],
[110, 111],
[110, 113],
[110, 116],
[110, 117],
[110, 121],
[110, 128],
[110, 129],
[110, 134],
[110, 135],
[110, 147],
[110, 151],
[110, 157],
[110, 169],
[111, 114],
[111, 117],
[111, 129],
[111, 143],
[111, 147],
[111, 152],
[111, 169],
[111, 172],
[112, 113],
[112, 114],
[112, 117],
[112, 121],
[112, 130],
[112, 131],
[112, 132],
[112, 141],
[112, 142],
[112, 143],
[112, 146],
[112, 152],
[112, 159],
[112, 168],
[112, 169],
[112, 170],
[112, 171],
[113, 114],
[113, 115],
[113, 116],
[113, 117],
[113, 119],
[113, 121],
[113, 126],
[113, 128],
[113, 129],
[113, 131],
[113, 134],
[113, 142],
[113, 143],
[113, 145],
[113, 146],
[113, 147],
[113, 152],
[113, 168],
[113, 169],
[113, 171],
[114, 117],
[114, 128],
[114, 129],
[114, 143],
[114, 146],
[114, 152],
[114, 169],
[114, 171],
[115, 116],
[115, 117],
[115, 128],
[115, 142],
[115, 146],
[115, 150],
[115, 152],
[115, 160],
[115, 168],
[115, 169],
[115, 171],
[116, 117],
[116, 121],
[116, 126],
[116, 128],
[116, 134],
[116, 135],
[116, 141],
[116, 142],
[116, 144],
[116, 145],
[116, 146],
[116, 151],
[116, 152],
[116, 157],
[116, 169],
[116, 171],
[117, 121],
[117, 128],
[117, 129],
[117, 135],
[117, 141],
[117, 142],
[117, 143],
[117, 146],
[117, 147],
[117, 152],
[117, 169],
[117, 171],
[117, 172],
[118, 119],
[118, 127],
[118, 148],
[118, 161],
[118, 162],
[118, 173],
[119, 121],
[119, 130],
[119, 131],
[119, 141],
[119, 148],
[119, 150],
[119, 159],
[119, 160],
[119, 161],
[119, 173],
[120, 121],
[120, 122],
[120, 123],
[120, 124],
[120, 127],
[120, 136],
[120, 140],
[120, 148],
[120, 150],
[120, 157],
[120, 164],
[120, 165],
[120, 166],
[121, 127],
[121, 129],
[121, 131],
[121, 132],
[121, 135],
[121, 136],
[121, 138],
[121, 142],
[121, 144],
[121, 145],
[121, 146],
[121, 147],
[121, 148],
[121, 150],
[121, 151],
[121, 152],
[121, 159],
[121, 160],
[121, 161],
[121, 162],
[121, 168],
[121, 173],
[122, 123],
[122, 124],
[122, 140],
[122, 164],
[122, 165],
[122, 166],
[123, 124],
[123, 168],
[124, 127],
[124, 136],
[124, 140],
[124, 148],
[124, 150],
[124, 157],
[124, 159],
[124, 161],
[124, 164],
[124, 168],
[125, 126],
[125, 127],
[125, 133],
[125, 165],
[126, 127],
[126, 133],
[126, 134],
[126, 135],
[126, 137],
[126, 138],
[126, 145],
[126, 148],
[126, 151],
[126, 157],
[126, 165],
[126, 169],
[127, 136],
[127, 148],
[127, 150],
[127, 154],
[127, 155],
[127, 157],
[127, 159],
[127, 161],
[127, 162],
[127, 163],
[127, 164],
[127, 165],
[128, 129],
[128, 134],
[128, 143],
[128, 146],
[128, 147],
[128, 151],
[128, 152],
[128, 169],
[128, 171],
[129, 143],
[129, 146],
[129, 147],
[129, 152],
[129, 169],
[129, 172],
[130, 131],
[130, 132],
[130, 141],
[131, 132],
[131, 141],
[131, 146],
[131, 167],
[131, 168],
[132, 141],
[132, 146],
[133, 134],
[133, 135],
[133, 136],
[133, 137],
[133, 151],
[133, 165],
[134, 135],
[134, 137],
[134, 142],
[134, 145],
[134, 148],
[134, 151],
[134, 157],
[134, 161],
[134, 165],
[135, 137],
[135, 138],
[135, 142],
[135, 143],
[135, 144],
[135, 145],
[135, 150],
[135, 151],
[135, 152],
[135, 168],
[136, 137],
[136, 138],
[136, 144],
[136, 151],
[136, 164],
[136, 166],
[137, 138],
[137, 145],
[137, 151],
[137, 165],
[138, 144],
[138, 145],
[138, 151],
[138, 152],
[139, 140],
[139, 148],
[139, 156],
[139, 164],
[140, 148],
[140, 157],
[140, 163],
[140, 164],
[140, 165],
[140, 166],
[140, 168],
[141, 142],
[141, 143],
[141, 148],
[141, 149],
[141, 157],
[141, 158],
[141, 162],
[141, 163],
[141, 167],
[141, 168],
[141, 169],
[141, 170],
[141, 171],
[141, 173],
[142, 143],
[142, 145],
[142, 146],
[142, 150],
[142, 151],
[142, 152],
[142, 168],
[142, 169],
[142, 171],
[143, 146],
[143, 152],
[143, 169],
[143, 170],
[143, 171],
[143, 172],
[144, 145],
[144, 150],
[144, 151],
[144, 152],
[145, 146],
[145, 151],
[145, 157],
[146, 147],
[146, 152],
[146, 159],
[146, 168],
[146, 169],
[146, 171],
[147, 169],
[148, 149],
[148, 150],
[148, 151],
[148, 152],
[148, 153],
[148, 154],
[148, 156],
[148, 157],
[148, 159],
[148, 160],
[148, 161],
[148, 162],
[148, 163],
[148, 164],
[148, 165],
[148, 168],
[148, 173],
[149, 153],
[149, 154],
[149, 157],
[149, 158],
[149, 162],
[149, 163],
[150, 151],
[150, 152],
[150, 157],
[150, 159],
[150, 160],
[150, 161],
[150, 164],
[150, 168],
[151, 152],
[151, 157],
[151, 165],
[151, 168],
[151, 169],
[151, 171],
[152, 160],
[152, 168],
[152, 169],
[152, 171],
[152, 172],
[153, 154],
[153, 155],
[153, 156],
[153, 157],
[153, 158],
[153, 163],
[154, 155],
[154, 157],
[154, 162],
[154, 163],
[155, 162],
[155, 163],
[155, 170],
[156, 157],
[156, 158],
[156, 163],
[156, 164],
[157, 158],
[157, 159],
[157, 161],
[157, 162],
[157, 163],
[157, 164],
[157, 165],
[157, 168],
[158, 163],
[158, 170],
[159, 160],
[159, 161],
[159, 163],
[160, 168],
[161, 162],
[161, 163],
[161, 164],
[161, 165],
[161, 168],
[162, 163],
[162, 173],
[163, 164],
[163, 170],
[164, 165],
[164, 166],
[165, 166],
[167, 168],
[167, 169],
[168, 169],
[169, 171],
[170, 171],
[170, 172],
[171, 172],
];
original_rsis = [41, 33, 85, 106, 122, 60, 61, 0, 15, 125, 39, 113, 37, 25, 7, 121, 115, 26, 92, 28, 27, 0, 70, 125, 106, 109, 101, 6, 104, 47, 126, 7, 46, 34, 76, 119, 90, 16, 120, 80, 27, 25, 23, 117, 49, 26, 101, 133, 92, 111, 121, 8, 125, 39, 6, 57, 25, 98, 107, 41, 1, 36, 14, 106, 10, 39, 29, 50, 8, 115, 7, 72, 116, 0, 78, 133, 98, 39, 67, 131, 4, 124, 14, 29, 30, 69, 117, 78, 25, 76, 24, 48, 125, 119, 65, 35, 35, 123, 4, 38, 33, 74, 70, 14, 59, 66, 117, 117, 101, 82, 20, 24, 128, 48, 40, 31, 7, 19, 5, 36, 32, 42, 119, 110, 58, 125, 70, 48, 13, 129, 137, 104, 90, 126, 104, 122, 114, 28, 47, 14, 66, 15, 105, 82, 81, 68, 121, 125, 112, 130, 4, 86, 136, 62, 27, 115, 63, 29, 137, 2, 105, 118, 132, 114, 134, 91, 86, 34, 95, 108, 59, 19, 60, 0];
